mixintcount/benchmarks/random_v2l/8_8_177.in
32 10
#	x1	x2	x3	x4	x5	x6	x7	x8;		0 = Real; 1 = Integer
	1	1	1	1	1	1	1	1
1	-7	-8	4	1	2	7	6	-8	-144
1	6	7	-7	-8	1	-5	-10	0	-64
1	8	-3	-5	3	8	-10	-6	-5	-29
1	8	-3	3	0	-2	3	-7	9	-15
1	10	4	-6	-2	-2	10	1	0	79
1	4	-2	8	10	-5	-8	-8	9	-11
1	-8	-10	-5	1	8	1	-7	-5	-152
1	6	-1	6	8	-4	-3	-10	2	-75
1	10	-9	-8	-3	5	1	-7	2	-34
1	-5	4	2	-7	5	1	-1	-5	43
1	10	-1	4	6	-8	-10	-1	9	-173
1	7	9	7	1	6	8	2	-10	-104
1	-10	-9	-8	4	-3	4	-6	0	-81
1	5	7	4	-10	4	-10	2	-2	-172
1	2	7	-10	7	3	7	3	-8	6
1	-2	4	1	8	2	2	8	-5	86
1	1	0	0	0	0	0	0	0	177
1	-1	0	0	0	0	0	0	0	177
1	0	1	0	0	0	0	0	0	177
1	0	-1	0	0	0	0	0	0	177
1	0	0	1	0	0	0	0	0	177
1	0	0	-1	0	0	0	0	0	177
1	0	0	0	1	0	0	0	0	177
1	0	0	0	-1	0	0	0	0	177
1	0	0	0	0	1	0	0	0	177
1	0	0	0	0	-1	0	0	0	177
1	0	0	0	0	0	1	0	0	177
1	0	0	0	0	0	-1	0	0	177
1	0	0	0	0	0	0	1	0	177
1	0	0	0	0	0	0	-1	0	177
1	0	0	0	0	0	0	0	1	177
1	0	0	0	0	0	0	0	-1	177
